NAME : n150w20.001.1034.tour
COMMENT : Length = 1034
COMMENT : Found by LKH [Keld Helsgaun] Tue Nov  7 19:36:32 2017
TYPE : TOUR
DIMENSION : 151
TOUR_SECTION
1
100
93
23
41
96
133
66
150
49
135
44
34
105
47
68
46
87
147
126
83
32
6
26
144
122
65
138
63
85
72
119
148
30
5
149
42
4
79
33
125
95
60
69
109
52
128
43
111
18
7
99
78
97
12
103
19
113
98
101
117
15
35
61
62
118
24
73
107
31
92
129
123
48
54
64
37
2
10
120
91
106
131
115
38
142
94
143
75
70
127
112
74
124
130
16
84
108
71
141
9
82
8
132
13
146
136
59
57
27
11
55
77
67
89
45
20
53
56
80
58
137
3
114
25
21
81
139
86
28
22
39
134
102
110
116
36
50
104
29
88
76
40
140
90
14
17
121
51
151
145
-1
EOF
